N = 11;
H = 6;
T = 2;

avail = array3d(1..N, 1..H, 1..T, [2, 2, 7, 2, 0, 10, 4, 4, 2, 5, 1, 4, 8, 1, 4, 2, 5, 5, 9, 9, 6, 6, 10, 6, 10, 10, 5, 10, 5, 9, 5, 8, 6, 2, 7, 1, 4, 2, 4, 9, 2, 9, 0, 1, 7, 7, 1, 0, 5, 4, 0, 5, 3, 2, 9, 9, 1, 9, 5, 0, 8, 6, 8, 3, 2, 3, 7, 6, 7, 5, 9, 9, 0, 8, 7, 8, 2, 4, 5, 4, 0, 6, 8, 1, 5, 6, 6, 2, 4, 7, 7, 3, 2, 8, 1, 8, 1, 8, 0, 1, 1, 7, 10, 7, 6, 3, 5, 1, 9, 10, 7, 6, 10, 6, 10, 9, 0, 2, 8, 5, 5, 1, 2, 8, 1, 3, 9, 5, 6, 10, 8, 6]);

r = array2d(1..H, 1..T, [4, 5, 3, 2, 5, 5, 2, 5, 6, 1, 4, 2]);
